43301.91,63.84,77.42
43455.23,63.62,77.15
47895.03,57.72,70.0
50978.95,54.23,65.76
55332.62,49.96,60.59
46323.89,59.68,72.37
45558.05,60.68,73.59
46469.28,59.49,72.15
49263.49,56.12,68.05
41064.4,67.32,81.64
46772.95,59.11,71.68
44229.67,62.51,75.8
53443.01,51.73,62.73
45987.92,60.12,72.9
45424.97,60.86,73.81
42328.05,65.31,79.2
45045.59,61.37,74.43
55360.11,49.94,60.56
52178.69,52.98,64.25
48121.22,57.45,69.67
